;; Original file: term_365.smt2
(set-logic HORN)
(declare-fun starexecinv1 (Real Real Real Real) Bool)

(assert (forall ((|gh0prime| Real)
         (|XXX0prime| Real)
         (|XXX1prime| Real)
         (|gh1prime| Real))
  (let ((a!1 (> |gh0prime| (* (+ 0 (- 1)) |XXX0prime|)))
        (a!2 (> |gh0prime| (* (+ 0 (- 1)) |XXX1prime|)))
        (a!3 (> |gh1prime| (* (+ 0 (- 1)) |XXX0prime|)))
        (a!4 (> |gh1prime| (* (+ 0 (- 1)) |XXX1prime|))))
    (=> (and true
             (> |gh0prime| |XXX0prime|)
             (> |gh0prime| |XXX1prime|)
             a!1
             a!2
             (> |gh1prime| |XXX0prime|)
             (> |gh1prime| |XXX1prime|)
             a!3
             a!4)
        (starexecinv1 |XXX0prime| |XXX1prime| |gh0prime| |gh1prime|)))))
(assert (forall ((|XXX0| Real)
         (|XXX1| Real)
         (gh0 Real)
         (gh1 Real)
         (|XXX0prime| Real)
         (|XXX1prime| Real)
         (|gh1prime| Real)
         (|gh0prime| Real))
  (let ((a!1 (and (= |gh1prime| (- gh1 (+ 0 1)))
                  (> gh1 (+ 0 0))
                  (= |gh0prime| gh0)))
        (a!2 (> |gh1prime| (* (+ 0 (- 1)) |XXX0prime|)))
        (a!3 (> |gh1prime| (* (+ 0 (- 1)) |XXX1prime|))))
  (let ((a!4 (and (= |gh0prime| (- gh0 (+ 0 1)))
                  (> |gh1prime| |XXX0prime|)
                  (> |gh1prime| |XXX1prime|)
                  a!2
                  a!3
                  (<= gh1 (+ 0 0)))))
  (let ((a!5 (and (starexecinv1 |XXX0| |XXX1| gh0 gh1)
                  (> (- |XXX0| |XXX1|) (+ 0 0))
                  (= |XXX0prime| (- |XXX1| |XXX0|))
                  (= |XXX1prime| (+ |XXX1| (+ 0 1)))
                  (or a!1 a!4)
                  true)))
    (=> a!5 (starexecinv1 |XXX0prime| |XXX1prime| |gh0prime| |gh1prime|)))))))
(assert (forall ((|XXX0| Real)
         (|XXX1| Real)
         (gh0 Real)
         (gh1 Real)
         )
  (=> (and (starexecinv1 |XXX0| |XXX1| gh0 gh1)
           (> (- |XXX0| |XXX1|) (+ 0 0))
           (< gh0 (+ 0 0))
           true)
      false)))
(check-sat)
